p wcnf 103 206 207 
1 56 27 0 
1 -69 80 0 
1 -38 56 0 
1 45 27 0 
1 69 -99 0 
1 -6 -64 0 
1 -35 -92 0 
1 -78 8 0 
1 -96 -40 0 
1 8 28 0 
1 98 22 0 
1 -100 -3 0 
1 -72 -30 0 
1 60 -1 0 
1 9 -6 0 
1 20 -93 0 
1 -30 -16 0 
1 71 50 0 
1 -61 28 0 
1 -48 72 0 
1 -2 -75 0 
1 -61 -51 0 
1 2 -77 0 
1 -26 41 0 
1 -89 -23 0 
1 -33 34 0 
1 12 -25 0 
1 43 51 0 
1 -98 48 0 
1 -27 -91 0 
1 48 -46 0 
1 -48 6 0 
1 -57 41 0 
1 -35 75 0 
1 10 69 0 
1 37 -19 0 
1 11 5 0 
1 92 27 0 
1 -103 -19 0 
1 -1 -101 0 
1 -34 -31 0 
1 92 -33 0 
1 26 -102 0 
1 6 25 0 
1 3 51 0 
1 55 94 0 
1 16 -85 0 
1 -95 24 0 
1 -86 -88 0 
1 -47 56 0 
1 89 -17 0 
1 -16 -69 0 
1 -54 95 0 
1 6 -10 0 
1 6 -47 0 
1 5 -75 0 
1 -92 -59 0 
1 -63 98 0 
1 81 -33 0 
1 1 -51 0 
1 4 -16 0 
1 95 -47 0 
1 -53 -22 0 
1 -9 -58 0 
1 64 -56 0 
1 18 -80 0 
1 49 40 0 
1 -3 -92 0 
1 14 28 0 
1 -13 -9 0 
1 59 -77 0 
1 11 29 0 
1 -102 24 0 
1 -45 -61 0 
1 73 -81 0 
1 -67 92 0 
1 38 -86 0 
1 22 -91 0 
1 -98 -32 0 
1 33 74 0 
1 31 -7 0 
1 32 -84 0 
1 39 25 0 
1 73 -24 0 
1 44 -26 0 
1 72 45 0 
1 -16 23 0 
1 74 20 0 
1 14 -87 0 
1 -3 91 0 
1 18 -22 0 
1 103 29 0 
1 -44 -99 0 
1 30 -14 0 
1 -40 37 0 
1 40 85 0 
1 -59 -53 0 
1 94 56 0 
1 -70 -25 0 
1 68 94 0 
1 52 -3 0 
1 67 -78 0 
1 -20 -32 0 
1 65 -44 0 
1 59 51 0 
1 33 11 0 
1 59 17 0 
1 51 82 0 
1 -89 -37 0 
1 -65 -71 0 
1 -93 2 0 
1 -23 -87 0 
1 103 18 0 
1 90 57 0 
1 -93 85 0 
1 3 23 0 
1 -25 81 0 
1 88 16 0 
1 24 -18 0 
1 56 90 0 
1 -31 78 0 
1 54 46 0 
1 65 -103 0 
1 54 -72 0 
1 -46 92 0 
1 -41 47 0 
1 19 33 0 
1 -22 86 0 
1 99 -44 0 
1 35 29 0 
1 -72 -67 0 
1 -4 82 0 
1 46 -79 0 
1 88 19 0 
1 -23 -42 0 
1 -39 -76 0 
1 63 -8 0 
1 -60 100 0 
1 -50 21 0 
1 -1 94 0 
1 7 -4 0 
1 77 -34 0 
1 -32 -55 0 
1 -14 98 0 
1 -39 17 0 
1 24 -25 0 
1 -63 -91 0 
1 -73 -66 0 
1 -17 60 0 
1 -85 76 0 
1 -31 60 0 
1 36 -82 0 
1 44 -89 0 
1 -89 20 0 
1 -47 3 0 
1 -46 -86 0 
1 48 26 0 
1 -103 13 0 
1 -16 103 0 
1 -55 -68 0 
1 80 -83 0 
1 -38 -24 0 
1 21 -57 0 
1 71 67 0 
1 16 -67 0 
1 -35 84 0 
1 -25 -86 0 
1 -77 -51 0 
1 -31 67 0 
1 85 32 0 
1 -24 -98 0 
1 46 -49 0 
1 -87 15 0 
1 -101 6 0 
1 -51 61 0 
1 32 37 0 
1 -42 51 0 
1 73 13 0 
1 -39 -79 0 
1 98 40 0 
1 71 -84 0 
1 73 -3 0 
1 54 100 0 
1 60 5 0 
1 -40 -84 0 
1 -36 28 0 
1 -21 9 0 
1 -52 40 0 
1 -42 39 0 
1 -68 -44 0 
1 -14 52 0 
1 -22 -75 0 
1 -20 -82 0 
1 -50 -43 0 
1 -11 37 0 
1 -66 -49 0 
1 -50 -35 0 
1 -36 103 0 
1 -29 64 0 
1 -59 98 0 
1 -71 41 0 
1 85 32 0 
1 -73 -33 0 
1 7 -84 0 
1 73 47 0 
1 5 -28 0 
